p cnf 256 1
256 0
w 1 0.644565
w 2 1 1
w 2 -1 0
w 3 2 0.616548
w 3 -2 0.933103
w 4 3 0.895568
w 4 -3 0.098491
w 5 4 0.0771139
w 5 -4 0.0184345
w 6 5 0.086851
w 6 -5 0.162587
w 7 6 0
w 7 -6 1
w 8 7 0.69961
w 8 -7 0.669306
w 9 8 0
w 9 -8 1
w 10 9 1
w 10 -9 0
w 11 10 0.685803
w 11 -10 0.669988
w 12 11 1
w 12 -11 0
w 13 12 1
w 13 -12 0
w 14 13 0
w 14 -13 1
w 15 14 0.324849
w 15 -14 0.74664
w 16 15 0.853268
w 16 -15 0.642207
w 17 1 0.645523
w 17 -1 0.719321
w 18 17 2 0.570568
w 18 17 -2 0.806172
w 18 -17 2 0.878057
w 18 -17 -2 0.632858
w 19 18 3 0.598971
w 19 18 -3 0.332467
w 19 -18 3 0.573805
w 19 -18 -3 0.863872
w 20 19 4 1
w 20 19 -4 1
w 20 -19 4 0
w 20 -19 -4 1
w 21 20 5 0.328379
w 21 20 -5 0.325241
w 21 -20 5 0.932319
w 21 -20 -5 0.659584
w 22 21 6 0.0624101
w 22 21 -6 0.325025
w 22 -21 6 0.0310592
w 22 -21 -6 0.80905
w 23 22 7 0.884327
w 23 22 -7 0.451258
w 23 -22 7 0.620605
w 23 -22 -7 0.52985
w 24 23 8 1
w 24 23 -8 1
w 24 -23 8 1
w 24 -23 -8 0
w 25 24 9 0.881251
w 25 24 -9 0.813104
w 25 -24 9 0.0657438
w 25 -24 -9 0.455056
w 26 25 10 0.531885
w 26 25 -10 0.358091
w 26 -25 10 0.919723
w 26 -25 -10 0.734624
w 27 26 11 0.832459
w 27 26 -11 0.0630031
w 27 -26 11 0.27217
w 27 -26 -11 0.764777
w 28 27 12 0.97838
w 28 27 -12 0.827187
w 28 -27 12 0.0476126
w 28 -27 -12 0.00943878
w 29 28 13 0.971183
w 29 28 -13 0.893766
w 29 -28 13 0.0874948
w 29 -28 -13 0.591788
w 30 29 14 0
w 30 29 -14 0
w 30 -29 14 1
w 30 -29 -14 0
w 31 30 15 0
w 31 30 -15 0
w 31 -30 15 0
w 31 -30 -15 1
w 32 31 16 0.85494
w 32 31 -16 0.929223
w 32 -31 16 0.5518
w 32 -31 -16 0.589564
w 33 17 0.384259
w 33 -17 0.652567
w 34 33 18 0
w 34 33 -18 0
w 34 -33 18 0
w 34 -33 -18 1
w 35 34 19 0
w 35 34 -19 1
w 35 -34 19 0
w 35 -34 -19 1
w 36 35 20 0.985738
w 36 35 -20 0.453523
w 36 -35 20 0.958029
w 36 -35 -20 0.913601
w 37 36 21 0.192854
w 37 36 -21 0.0555978
w 37 -36 21 0.234868
w 37 -36 -21 0.30893
w 38 37 22 0
w 38 37 -22 0
w 38 -37 22 0
w 38 -37 -22 1
w 39 38 23 0.194575
w 39 38 -23 0.00242661
w 39 -38 23 0.685438
w 39 -38 -23 0.578834
w 40 39 24 0.833761
w 40 39 -24 0.72787
w 40 -39 24 0.0301482
w 40 -39 -24 0.960462
w 41 40 25 0.452915
w 41 40 -25 0.0966031
w 41 -40 25 0.316553
w 41 -40 -25 0.846865
w 42 41 26 0
w 42 41 -26 0
w 42 -41 26 1
w 42 -41 -26 0
w 43 42 27 0.557589
w 43 42 -27 0.167392
w 43 -42 27 0.801801
w 43 -42 -27 0.792457
w 44 43 28 1
w 44 43 -28 1
w 44 -43 28 0
w 44 -43 -28 1
w 45 44 29 0
w 45 44 -29 1
w 45 -44 29 0
w 45 -44 -29 0
w 46 45 30 1
w 46 45 -30 0
w 46 -45 30 1
w 46 -45 -30 1
w 47 46 31 0.741935
w 47 46 -31 0.977198
w 47 -46 31 0.750591
w 47 -46 -31 0.868444
w 48 47 32 0.583193
w 48 47 -32 0.448476
w 48 -47 32 0.968244
w 48 -47 -32 0.329397
w 49 33 0
w 49 -33 1
w 50 49 34 1
w 50 49 -34 1
w 50 -49 34 0
w 50 -49 -34 0
w 51 50 35 0.398971
w 51 50 -35 0.912145
w 51 -50 35 0.134013
w 51 -50 -35 0.0488205
w 52 51 36 0.985122
w 52 51 -36 0.277503
w 52 -51 36 0.0984761
w 52 -51 -36 0.669991
w 53 52 37 1
w 53 52 -37 1
w 53 -52 37 1
w 53 -52 -37 0
w 54 53 38 1
w 54 53 -38 0
w 54 -53 38 0
w 54 -53 -38 0
w 55 54 39 0.374179
w 55 54 -39 0.83385
w 55 -54 39 0.116193
w 55 -54 -39 0.380245
w 56 55 40 0.247391
w 56 55 -40 0.178767
w 56 -55 40 0.581444
w 56 -55 -40 0.191089
w 57 56 41 0
w 57 56 -41 0
w 57 -56 41 0
w 57 -56 -41 1
w 58 57 42 0.668923
w 58 57 -42 0.916384
w 58 -57 42 0.0161037
w 58 -57 -42 0.338914
w 59 58 43 0
w 59 58 -43 1
w 59 -58 43 1
w 59 -58 -43 1
w 60 59 44 0.222007
w 60 59 -44 0.637198
w 60 -59 44 0.782643
w 60 -59 -44 0.0088041
w 61 60 45 0
w 61 60 -45 1
w 61 -60 45 0
w 61 -60 -45 0
w 62 61 46 1
w 62 61 -46 0
w 62 -61 46 0
w 62 -61 -46 1
w 63 62 47 0.153538
w 63 62 -47 0.137873
w 63 -62 47 0.401012
w 63 -62 -47 0.792418
w 64 63 48 0
w 64 63 -48 1
w 64 -63 48 0
w 64 -63 -48 0
w 65 49 0.636995
w 65 -49 0.0630859
w 66 65 50 0.655398
w 66 65 -50 0.774582
w 66 -65 50 0.821418
w 66 -65 -50 0.877406
w 67 66 51 0
w 67 66 -51 0
w 67 -66 51 1
w 67 -66 -51 0
w 68 67 52 1
w 68 67 -52 0
w 68 -67 52 1
w 68 -67 -52 1
w 69 68 53 0.283227
w 69 68 -53 0.691169
w 69 -68 53 0.100611
w 69 -68 -53 0.4211
w 70 69 54 1
w 70 69 -54 1
w 70 -69 54 0
w 70 -69 -54 0
w 71 70 55 0.570963
w 71 70 -55 0.461073
w 71 -70 55 0.185199
w 71 -70 -55 0.634049
w 72 71 56 0
w 72 71 -56 1
w 72 -71 56 1
w 72 -71 -56 1
w 73 72 57 0.790933
w 73 72 -57 0.604212
w 73 -72 57 0.243568
w 73 -72 -57 0.0114875
w 74 73 58 0.0583468
w 74 73 -58 0.818021
w 74 -73 58 0.999016
w 74 -73 -58 0.443515
w 75 74 59 0.946089
w 75 74 -59 0.726742
w 75 -74 59 0.483148
w 75 -74 -59 0.0467007
w 76 75 60 0
w 76 75 -60 1
w 76 -75 60 1
w 76 -75 -60 0
w 77 76 61 0.172646
w 77 76 -61 0.308406
w 77 -76 61 0.00263558
w 77 -76 -61 0.357845
w 78 77 62 0.368089
w 78 77 -62 0.198443
w 78 -77 62 0.351085
w 78 -77 -62 0.554961
w 79 78 63 0.171496
w 79 78 -63 0.345894
w 79 -78 63 0.520658
w 79 -78 -63 0.415063
w 80 79 64 0
w 80 79 -64 1
w 80 -79 64 0
w 80 -79 -64 1
w 81 65 0.967381
w 81 -65 0.0811819
w 82 81 66 0.450529
w 82 81 -66 0.127883
w 82 -81 66 0.791509
w 82 -81 -66 0.0258568
w 83 82 67 1
w 83 82 -67 0
w 83 -82 67 0
w 83 -82 -67 1
w 84 83 68 0
w 84 83 -68 1
w 84 -83 68 0
w 84 -83 -68 0
w 85 84 69 0
w 85 84 -69 1
w 85 -84 69 1
w 85 -84 -69 1
w 86 85 70 0.581988
w 86 85 -70 0.951804
w 86 -85 70 0.238136
w 86 -85 -70 0.718065
w 87 86 71 1
w 87 86 -71 0
w 87 -86 71 0
w 87 -86 -71 1
w 88 87 72 0.985806
w 88 87 -72 0.831448
w 88 -87 72 0.0622226
w 88 -87 -72 0.777315
w 89 88 73 0.129836
w 89 88 -73 0.193266
w 89 -88 73 0.620604
w 89 -88 -73 0.739011
w 90 89 74 0.692309
w 90 89 -74 0.350823
w 90 -89 74 0.728306
w 90 -89 -74 0.706469
w 91 90 75 0
w 91 90 -75 0
w 91 -90 75 1
w 91 -90 -75 1
w 92 91 76 0.746338
w 92 91 -76 0.51651
w 92 -91 76 0.560258
w 92 -91 -76 0.984474
w 93 92 77 1
w 93 92 -77 0
w 93 -92 77 0
w 93 -92 -77 0
w 94 93 78 0.0220738
w 94 93 -78 0.313416
w 94 -93 78 0.61038
w 94 -93 -78 0.0842964
w 95 94 79 1
w 95 94 -79 1
w 95 -94 79 0
w 95 -94 -79 0
w 96 95 80 0.0658593
w 96 95 -80 0.780599
w 96 -95 80 0.303966
w 96 -95 -80 0.794165
w 97 81 0
w 97 -81 1
w 98 97 82 0.558781
w 98 97 -82 0.500273
w 98 -97 82 0.601879
w 98 -97 -82 0.167235
w 99 98 83 1
w 99 98 -83 0
w 99 -98 83 1
w 99 -98 -83 0
w 100 99 84 0.629097
w 100 99 -84 0.440699
w 100 -99 84 0.0405737
w 100 -99 -84 0.408028
w 101 100 85 0
w 101 100 -85 1
w 101 -100 85 1
w 101 -100 -85 1
w 102 101 86 1
w 102 101 -86 0
w 102 -101 86 0
w 102 -101 -86 0
w 103 102 87 0.354981
w 103 102 -87 0.0183105
w 103 -102 87 0.58874
w 103 -102 -87 0.842049
w 104 103 88 0.256097
w 104 103 -88 0.40083
w 104 -103 88 0.153272
w 104 -103 -88 0.857976
w 105 104 89 0.399883
w 105 104 -89 0.976365
w 105 -104 89 0.295558
w 105 -104 -89 0.630968
w 106 105 90 0
w 106 105 -90 1
w 106 -105 90 0
w 106 -105 -90 0
w 107 106 91 0.2328
w 107 106 -91 0.403085
w 107 -106 91 0.686502
w 107 -106 -91 0.779869
w 108 107 92 0.172596
w 108 107 -92 0.54107
w 108 -107 92 0.57652
w 108 -107 -92 0.746978
w 109 108 93 1
w 109 108 -93 0
w 109 -108 93 0
w 109 -108 -93 0
w 110 109 94 0.926724
w 110 109 -94 0.215933
w 110 -109 94 0.344839
w 110 -109 -94 0.0799965
w 111 110 95 0
w 111 110 -95 0
w 111 -110 95 1
w 111 -110 -95 0
w 112 111 96 0
w 112 111 -96 1
w 112 -111 96 0
w 112 -111 -96 0
w 113 97 0
w 113 -97 1
w 114 113 98 0.72551
w 114 113 -98 0.1623
w 114 -113 98 0.51697
w 114 -113 -98 0.898105
w 115 114 99 0.0934899
w 115 114 -99 0.645084
w 115 -114 99 0.958784
w 115 -114 -99 0.464585
w 116 115 100 0.232509
w 116 115 -100 0.424421
w 116 -115 100 0.691052
w 116 -115 -100 0.159233
w 117 116 101 0.035891
w 117 116 -101 0.23923
w 117 -116 101 0.714263
w 117 -116 -101 0.948796
w 118 117 102 0.764536
w 118 117 -102 0.157258
w 118 -117 102 0.829958
w 118 -117 -102 0.144138
w 119 118 103 1
w 119 118 -103 1
w 119 -118 103 1
w 119 -118 -103 0
w 120 119 104 0.309488
w 120 119 -104 0.96539
w 120 -119 104 0.8385
w 120 -119 -104 0.826457
w 121 120 105 0.54187
w 121 120 -105 0.919947
w 121 -120 105 0.508579
w 121 -120 -105 0.500654
w 122 121 106 0
w 122 121 -106 1
w 122 -121 106 0
w 122 -121 -106 0
w 123 122 107 0.449308
w 123 122 -107 0.982565
w 123 -122 107 0.131626
w 123 -122 -107 0.16357
w 124 123 108 0.850735
w 124 123 -108 0.928106
w 124 -123 108 0.0886188
w 124 -123 -108 0.680693
w 125 124 109 1
w 125 124 -109 0
w 125 -124 109 1
w 125 -124 -109 1
w 126 125 110 1
w 126 125 -110 0
w 126 -125 110 0
w 126 -125 -110 1
w 127 126 111 0.422582
w 127 126 -111 0.159077
w 127 -126 111 0.458908
w 127 -126 -111 0.923236
w 128 127 112 0.71453
w 128 127 -112 0.656399
w 128 -127 112 0.352563
w 128 -127 -112 0.661204
w 129 113 0.801871
w 129 -113 0.643769
w 130 129 114 0.965442
w 130 129 -114 0.57513
w 130 -129 114 0.531155
w 130 -129 -114 0.893548
w 131 130 115 0.211848
w 131 130 -115 0.965792
w 131 -130 115 0.12661
w 131 -130 -115 0.0934134
w 132 131 116 0
w 132 131 -116 0
w 132 -131 116 0
w 132 -131 -116 1
w 133 132 117 0
w 133 132 -117 0
w 133 -132 117 1
w 133 -132 -117 1
w 134 133 118 1
w 134 133 -118 0
w 134 -133 118 0
w 134 -133 -118 0
w 135 134 119 1
w 135 134 -119 1
w 135 -134 119 1
w 135 -134 -119 0
w 136 135 120 0.486162
w 136 135 -120 0.704159
w 136 -135 120 0.305562
w 136 -135 -120 0.0173171
w 137 136 121 0.969311
w 137 136 -121 0.229165
w 137 -136 121 0.563499
w 137 -136 -121 0.095921
w 138 137 122 1
w 138 137 -122 1
w 138 -137 122 0
w 138 -137 -122 0
w 139 138 123 0.839129
w 139 138 -123 0.524053
w 139 -138 123 0.849778
w 139 -138 -123 0.0911503
w 140 139 124 1
w 140 139 -124 1
w 140 -139 124 0
w 140 -139 -124 0
w 141 140 125 1
w 141 140 -125 1
w 141 -140 125 0
w 141 -140 -125 1
w 142 141 126 0
w 142 141 -126 0
w 142 -141 126 1
w 142 -141 -126 1
w 143 142 127 0
w 143 142 -127 1
w 143 -142 127 0
w 143 -142 -127 1
w 144 143 128 0
w 144 143 -128 1
w 144 -143 128 0
w 144 -143 -128 0
w 145 129 1
w 145 -129 0
w 146 145 130 1
w 146 145 -130 1
w 146 -145 130 0
w 146 -145 -130 1
w 147 146 131 1
w 147 146 -131 0
w 147 -146 131 0
w 147 -146 -131 0
w 148 147 132 0.335868
w 148 147 -132 0.731365
w 148 -147 132 0.631091
w 148 -147 -132 0.486165
w 149 148 133 0.981858
w 149 148 -133 0.34062
w 149 -148 133 0.126197
w 149 -148 -133 0.349942
w 150 149 134 0.445705
w 150 149 -134 0.947191
w 150 -149 134 0.808444
w 150 -149 -134 0.861134
w 151 150 135 0.719409
w 151 150 -135 0.602278
w 151 -150 135 0.324284
w 151 -150 -135 0.899698
w 152 151 136 0
w 152 151 -136 1
w 152 -151 136 0
w 152 -151 -136 0
w 153 152 137 0.320263
w 153 152 -137 0.197845
w 153 -152 137 0.217371
w 153 -152 -137 0.244552
w 154 153 138 0.983858
w 154 153 -138 0.58042
w 154 -153 138 0.346373
w 154 -153 -138 0.614949
w 155 154 139 1
w 155 154 -139 1
w 155 -154 139 1
w 155 -154 -139 0
w 156 155 140 0.199987
w 156 155 -140 0.694273
w 156 -155 140 0.893939
w 156 -155 -140 0.00843077
w 157 156 141 0.760958
w 157 156 -141 0.72784
w 157 -156 141 0.157685
w 157 -156 -141 0.0852413
w 158 157 142 0.469289
w 158 157 -142 0.705919
w 158 -157 142 0.231577
w 158 -157 -142 0.339997
w 159 158 143 0.741325
w 159 158 -143 0.66026
w 159 -158 143 0.911985
w 159 -158 -143 0.958697
w 160 159 144 0.526993
w 160 159 -144 0.942555
w 160 -159 144 0.485232
w 160 -159 -144 0.873366
w 161 145 0.551816
w 161 -145 0.995738
w 162 161 146 0
w 162 161 -146 1
w 162 -161 146 0
w 162 -161 -146 1
w 163 162 147 0.994998
w 163 162 -147 0.167439
w 163 -162 147 0.493987
w 163 -162 -147 0.755955
w 164 163 148 0.651672
w 164 163 -148 0.841197
w 164 -163 148 0.522817
w 164 -163 -148 0.120961
w 165 164 149 0.754394
w 165 164 -149 0.460958
w 165 -164 149 0.261255
w 165 -164 -149 0.49572
w 166 165 150 1
w 166 165 -150 1
w 166 -165 150 0
w 166 -165 -150 0
w 167 166 151 0
w 167 166 -151 0
w 167 -166 151 0
w 167 -166 -151 1
w 168 167 152 0.108785
w 168 167 -152 0.0221004
w 168 -167 152 0.813643
w 168 -167 -152 0.209843
w 169 168 153 1
w 169 168 -153 1
w 169 -168 153 1
w 169 -168 -153 0
w 170 169 154 0
w 170 169 -154 0
w 170 -169 154 1
w 170 -169 -154 1
w 171 170 155 1
w 171 170 -155 0
w 171 -170 155 1
w 171 -170 -155 0
w 172 171 156 0.783604
w 172 171 -156 0.471173
w 172 -171 156 0.62705
w 172 -171 -156 0.483838
w 173 172 157 0.138313
w 173 172 -157 0.0574369
w 173 -172 157 0.822618
w 173 -172 -157 0.201393
w 174 173 158 0.931403
w 174 173 -158 0.223493
w 174 -173 158 0.440417
w 174 -173 -158 0.141246
w 175 174 159 1
w 175 174 -159 0
w 175 -174 159 0
w 175 -174 -159 0
w 176 175 160 0
w 176 175 -160 0
w 176 -175 160 0
w 176 -175 -160 1
w 177 161 0
w 177 -161 1
w 178 177 162 0
w 178 177 -162 0
w 178 -177 162 1
w 178 -177 -162 1
w 179 178 163 0.772584
w 179 178 -163 0.0634456
w 179 -178 163 0.33579
w 179 -178 -163 0.640728
w 180 179 164 1
w 180 179 -164 1
w 180 -179 164 1
w 180 -179 -164 0
w 181 180 165 0.460418
w 181 180 -165 0.535996
w 181 -180 165 0.0312457
w 181 -180 -165 0.653058
w 182 181 166 0.784394
w 182 181 -166 0.0919082
w 182 -181 166 0.188967
w 182 -181 -166 0.781368
w 183 182 167 1
w 183 182 -167 1
w 183 -182 167 0
w 183 -182 -167 1
w 184 183 168 0.619591
w 184 183 -168 0.824177
w 184 -183 168 0.131051
w 184 -183 -168 0.0559865
w 185 184 169 0.903635
w 185 184 -169 0.119432
w 185 -184 169 0.0119196
w 185 -184 -169 0.544364
w 186 185 170 0
w 186 185 -170 1
w 186 -185 170 1
w 186 -185 -170 1
w 187 186 171 1
w 187 186 -171 0
w 187 -186 171 0
w 187 -186 -171 0
w 188 187 172 0.820541
w 188 187 -172 0.166626
w 188 -187 172 0.630531
w 188 -187 -172 0.00950835
w 189 188 173 0.0591719
w 189 188 -173 0.307352
w 189 -188 173 0.49298
w 189 -188 -173 0.843387
w 190 189 174 0
w 190 189 -174 1
w 190 -189 174 0
w 190 -189 -174 1
w 191 190 175 0.563487
w 191 190 -175 0.357306
w 191 -190 175 0.638397
w 191 -190 -175 0.575407
w 192 191 176 0.959588
w 192 191 -176 0.980554
w 192 -191 176 0.909381
w 192 -191 -176 0.68393
w 193 177 1
w 193 -177 0
w 194 193 178 1
w 194 193 -178 1
w 194 -193 178 0
w 194 -193 -178 1
w 195 194 179 0
w 195 194 -179 0
w 195 -194 179 1
w 195 -194 -179 0
w 196 195 180 0.3877
w 196 195 -180 0.0247502
w 196 -195 180 0.36298
w 196 -195 -180 0.450881
w 197 196 181 1
w 197 196 -181 0
w 197 -196 181 1
w 197 -196 -181 0
w 198 197 182 0.158347
w 198 197 -182 0.983321
w 198 -197 182 0.477133
w 198 -197 -182 0.0600171
w 199 198 183 0.457686
w 199 198 -183 0.969398
w 199 -198 183 0.626839
w 199 -198 -183 0.863387
w 200 199 184 0
w 200 199 -184 1
w 200 -199 184 0
w 200 -199 -184 1
w 201 200 185 0.602377
w 201 200 -185 0.66268
w 201 -200 185 0.444965
w 201 -200 -185 0.682724
w 202 201 186 1
w 202 201 -186 0
w 202 -201 186 0
w 202 -201 -186 1
w 203 202 187 0.566571
w 203 202 -187 0.153497
w 203 -202 187 0.859543
w 203 -202 -187 0.367612
w 204 203 188 0
w 204 203 -188 1
w 204 -203 188 0
w 204 -203 -188 0
w 205 204 189 0
w 205 204 -189 1
w 205 -204 189 0
w 205 -204 -189 1
w 206 205 190 0.713245
w 206 205 -190 0.714129
w 206 -205 190 0.36815
w 206 -205 -190 0.79215
w 207 206 191 0.970526
w 207 206 -191 0.45483
w 207 -206 191 0.143637
w 207 -206 -191 0.653251
w 208 207 192 0.108195
w 208 207 -192 0.723675
w 208 -207 192 0.868481
w 208 -207 -192 0.435733
w 209 193 1
w 209 -193 0
w 210 209 194 0.104523
w 210 209 -194 0.802663
w 210 -209 194 0.0876501
w 210 -209 -194 0.865792
w 211 210 195 0
w 211 210 -195 1
w 211 -210 195 0
w 211 -210 -195 0
w 212 211 196 0.469972
w 212 211 -196 0.0455312
w 212 -211 196 0.359757
w 212 -211 -196 0.306585
w 213 212 197 0.073886
w 213 212 -197 0.674735
w 213 -212 197 0.550926
w 213 -212 -197 0.772558
w 214 213 198 0.00575609
w 214 213 -198 0.916195
w 214 -213 198 0.298512
w 214 -213 -198 0.655037
w 215 214 199 1
w 215 214 -199 0
w 215 -214 199 0
w 215 -214 -199 1
w 216 215 200 0.0493515
w 216 215 -200 0.371688
w 216 -215 200 0.761233
w 216 -215 -200 0.137002
w 217 216 201 1
w 217 216 -201 1
w 217 -216 201 1
w 217 -216 -201 0
w 218 217 202 0.141956
w 218 217 -202 0.474425
w 218 -217 202 0.745966
w 218 -217 -202 0.501713
w 219 218 203 0.504742
w 219 218 -203 0.575599
w 219 -218 203 0.455745
w 219 -218 -203 0.0556683
w 220 219 204 1
w 220 219 -204 0
w 220 -219 204 0
w 220 -219 -204 0
w 221 220 205 0.288742
w 221 220 -205 0.421703
w 221 -220 205 0.239979
w 221 -220 -205 0.748864
w 222 221 206 0.198548
w 222 221 -206 0.798216
w 222 -221 206 0.0605568
w 222 -221 -206 0.959781
w 223 222 207 0.298037
w 223 222 -207 0.0496357
w 223 -222 207 0.64161
w 223 -222 -207 0.639711
w 224 223 208 0
w 224 223 -208 1
w 224 -223 208 0
w 224 -223 -208 0
w 225 209 0
w 225 -209 1
w 226 225 210 0.858981
w 226 225 -210 0.765269
w 226 -225 210 0.648422
w 226 -225 -210 0.207138
w 227 226 211 0.709847
w 227 226 -211 0.471491
w 227 -226 211 0.265792
w 227 -226 -211 0.426308
w 228 227 212 0.687495
w 228 227 -212 0.666286
w 228 -227 212 0.509098
w 228 -227 -212 0.376363
w 229 228 213 0.307313
w 229 228 -213 0.43692
w 229 -228 213 0.824615
w 229 -228 -213 0.242531
w 230 229 214 0.874251
w 230 229 -214 0.884141
w 230 -229 214 0.374669
w 230 -229 -214 0.92834
w 231 230 215 0
w 231 230 -215 0
w 231 -230 215 0
w 231 -230 -215 1
w 232 231 216 0.906952
w 232 231 -216 0.298698
w 232 -231 216 0.531647
w 232 -231 -216 0.555375
w 233 232 217 0.397922
w 233 232 -217 0.265222
w 233 -232 217 0.977327
w 233 -232 -217 0.663713
w 234 233 218 0.737561
w 234 233 -218 0.351208
w 234 -233 218 0.357816
w 234 -233 -218 0.246658
w 235 234 219 0.22265
w 235 234 -219 0.553972
w 235 -234 219 0.164492
w 235 -234 -219 0.0472653
w 236 235 220 0.899449
w 236 235 -220 0.921516
w 236 -235 220 0.680643
w 236 -235 -220 0.274118
w 237 236 221 0.90683
w 237 236 -221 0.430454
w 237 -236 221 0.30671
w 237 -236 -221 0.221028
w 238 237 222 0.0730877
w 238 237 -222 0.12798
w 238 -237 222 0.16887
w 238 -237 -222 0.604735
w 239 238 223 0.674706
w 239 238 -223 0.00265651
w 239 -238 223 0.948577
w 239 -238 -223 0.652034
w 240 239 224 0.640106
w 240 239 -224 0.389594
w 240 -239 224 0.0175779
w 240 -239 -224 0.997922
w 241 225 0.74515
w 241 -225 0.220572
w 242 241 226 1
w 242 241 -226 0
w 242 -241 226 1
w 242 -241 -226 1
w 243 242 227 0.0832082
w 243 242 -227 0.039209
w 243 -242 227 0.5742
w 243 -242 -227 0.513662
w 244 243 228 0
w 244 243 -228 0
w 244 -243 228 0
w 244 -243 -228 1
w 245 244 229 0
w 245 244 -229 0
w 245 -244 229 0
w 245 -244 -229 1
w 246 245 230 0.692767
w 246 245 -230 0.195246
w 246 -245 230 0.269038
w 246 -245 -230 0.710345
w 247 246 231 0
w 247 246 -231 0
w 247 -246 231 1
w 247 -246 -231 0
w 248 247 232 0
w 248 247 -232 0
w 248 -247 232 0
w 248 -247 -232 1
w 249 248 233 0
w 249 248 -233 0
w 249 -248 233 0
w 249 -248 -233 1
w 250 249 234 1
w 250 249 -234 1
w 250 -249 234 0
w 250 -249 -234 1
w 251 250 235 0.935045
w 251 250 -235 0.725204
w 251 -250 235 0.20395
w 251 -250 -235 0.814488
w 252 251 236 1
w 252 251 -236 0
w 252 -251 236 1
w 252 -251 -236 0
w 253 252 237 0.583812
w 253 252 -237 0.00610403
w 253 -252 237 0.0843316
w 253 -252 -237 0.948948
w 254 253 238 0.166573
w 254 253 -238 0.123174
w 254 -253 238 0.558613
w 254 -253 -238 0.916184
w 255 254 239 0
w 255 254 -239 1
w 255 -254 239 0
w 255 -254 -239 1
w 256 255 240 0
w 256 255 -240 0
w 256 -255 240 1
w 256 -255 -240 0